JulietBench/Juliet_Based_Patch_Bench/linux/CWE-189-Numeric-Errors/CVE_2013_6367_b963a22e6d1a266a67e9eecc88134713fd54775c/Resultapic_get_tmcct_Snippet_patch2EQ.smt2
; benchmark generated from python API
(set-info :status unknown)
(declare-fun R () (_ BitVec 32))
(declare-fun rdi () (_ BitVec 64))
(assert
 (let (($x47 (= (_ bv1 32) R)))
 (let (($x49 (= (_ bv0 32) R)))
 (let ((?x6 ((_ extract 31 0) rdi)))
 (let (($x10 (= (_ bv0 32) ?x6)))
 (let (($x50 (and $x10 $x49)))
 (let (($x36 (and (distinct (_ bv0 32) ?x6) true)))
 (let (($x48 (and $x36 $x47)))
 (let (($x51 (or $x48 $x50)))
 (and $x51 $x47))))))))))
(check-sat)
